16 16
10
3 3 6 8
3 4 0 0
3 5 6 11
3 6 3 0
3 7 13 0
3 8 6 0
3 10 3 6
3 12 0 4
4 7 9 0
7 9 9 7
% time elapsed: 0.17 s
% time elapsed: 0.17 s
%%%mzn-stat: initTime=0.000292
%%%mzn-stat: solveTime=0.06995
%%%mzn-stat: solutions=28
%%%mzn-stat: variables=21
%%%mzn-stat: propagators=15
%%%mzn-stat: propagations=133928
%%%mzn-stat: nodes=21756
%%%mzn-stat: failures=10524
%%%mzn-stat: restarts=50
%%%mzn-stat: peakDepth=30
%%%mzn-stat-end
